row=8;
column=8;
Board=[|1,0,1,1,0,1,1,0|1,0,0,0,0,0,1,0|0,0,0,0,0,0,0,0|1,0,0,1,0,1,0,0|0,0,0,0,0,0,0,0|0,0,0,0,0,0,0,1|0,1,0,1,0,1,0,0|0,0,0,0,0,0,0,0|];
right = [3,0,3,0,4,0,1,3];
bottom = [2,2,0,3,1,2,1,3];
